language ESSENCE' 1.0

letting jobs = 102
letting horizon = 777
letting resourcesRenew = 2
letting resourcesNonrenew = 2
letting resourceLimits = [51, 47, 158, 166]
letting successors = [[2, 3, 4, 5, 6, 7, 8, 9, 10, 11, 12, 13, 14, 15, 16, 18, 20, 21, 22, 23, 24, 25, 37, 42, 44, 53], [101, 100, 93, 66, 60, 59, 58, 57, 56, 51, 47, 45, 39, 38, 36, 35, 17], [101, 100, 97, 96, 68, 65, 64, 60, 59, 58, 57, 56, 55, 54, 48, 47, 45, 43, 38, 30, 29], [101, 98, 96, 95, 88, 83, 64, 61, 59, 54, 51, 47, 43, 38, 36, 34, 28], [99, 98, 97, 95, 69, 65, 60, 56, 50, 49, 47, 45, 39, 38, 36], [101, 97, 96, 94, 91, 69, 60, 58, 57, 52, 45, 41, 38, 19], [98, 97, 96, 94, 89, 88, 87, 85, 82, 69, 68, 66, 61, 58, 57, 52, 49, 47, 43, 41], [100, 99, 96, 95, 87, 68, 65, 58, 55, 48, 32, 26], [97, 96, 91, 89, 86, 85, 82, 69, 67, 63, 61, 59, 55, 39, 31], [101, 98, 91, 83, 69, 67, 64, 60, 58, 57, 47, 40, 36, 33], [100, 99, 96, 95, 93, 92, 90, 89, 87, 80, 76, 68, 67, 65, 63, 62, 60, 57, 56, 46], [99, 98, 96, 95, 93, 90, 89, 88, 87, 77, 69, 67, 64, 57, 45, 34], [99, 97, 94, 93, 91, 86, 67, 63, 45, 36, 31], [101, 92, 88, 86, 55, 54, 43, 40, 27], [100, 97, 96, 95, 90, 89, 87, 83, 82, 80, 78, 72, 69, 68, 67, 58, 57, 50, 49], [101, 97, 95, 94, 93, 92, 91, 89, 88, 87, 85, 84, 83, 82, 79, 78, 77, 68, 62, 54, 52], [99, 98, 96, 95, 90, 89, 88, 79, 75, 74, 68, 67, 63, 62, 49, 46], [97, 96, 95, 92, 88, 82, 76, 68, 62, 56, 38], [100, 95, 93, 92, 88, 87, 83, 82, 80, 79, 71, 68, 67, 54, 43], [96, 95, 91, 86, 85, 84, 69, 58, 45, 36], [100, 98, 95, 94, 91, 90, 89, 88, 86, 85, 84, 81, 80, 79, 78, 77, 76, 72, 71, 67, 66, 61], [99, 94, 91, 89, 88, 86, 85, 83, 82, 81, 80, 79, 75, 74, 69, 67, 63, 62, 59], [97, 94, 93, 91, 90, 89, 88, 86, 84, 83, 82, 79, 78, 76, 69, 68, 67, 63, 62], [96, 93, 92, 91, 87, 86, 85, 83, 82, 78, 77, 75, 74, 72, 70, 69, 68, 55], [99, 98, 95, 94, 92, 89, 88, 84, 79, 77, 67, 64, 45], [90, 86, 85, 84, 80, 77, 56, 54, 49, 45], [96, 91, 90, 89, 87, 84, 83, 82, 80, 78, 76, 75, 74, 71, 67, 63, 62], [97, 93, 87, 86, 82, 80, 79, 78, 75, 74, 72, 69, 68, 67, 63], [95, 93, 91, 90, 89, 87, 86, 85, 83, 79, 78, 75, 74, 73, 72, 69, 67], [98, 92, 89, 87, 86, 85, 84, 82, 81, 76, 75, 74, 72, 71, 67, 63], [98, 95, 92, 90, 88, 80, 73, 72, 71, 68, 56, 54], [98, 90, 89, 86, 85, 82, 81, 80, 74, 72, 69, 59], [97, 94, 89, 85, 84, 82, 75, 74, 73, 71, 68, 62], [94, 92, 91, 85, 78, 73, 72, 71, 70, 68, 55], [96, 92, 91, 86, 82, 78, 76, 75, 74, 63, 62], [92, 87, 82, 78, 75, 74, 68, 62, 55], [88, 87, 84, 83, 80, 79, 78, 76, 74, 73, 71, 62], [90, 89, 87, 85, 84, 80, 78, 74, 71, 67, 63], [94, 88, 87, 84, 83, 81, 80, 73, 62, 54], [93, 90, 85, 82, 78, 77, 76, 75, 72, 71, 68], [95, 92, 83, 80, 79, 76, 73, 72, 71, 67], [98, 96, 92, 89, 87, 80, 79, 77, 73, 71], [99, 90, 84, 78, 74, 72, 70, 63], [93, 88, 86, 85, 78, 75, 72, 69], [82, 75, 74, 73, 71, 62], [97, 94, 84, 83, 73, 69], [86, 81, 80, 77, 74, 70], [94, 88, 80, 72, 67], [91, 76, 73, 71, 70], [93, 77, 75, 74, 73], [84, 79, 77, 75, 73], [80, 74, 73, 71], [94, 83, 75, 71], [76, 75, 70], [80, 79, 76], [83, 79, 78], [86, 75, 74], [79, 77, 70], [78, 77, 76], [88, 79, 72], [93, 74, 70], [72, 70], [77, 73], [85, 76], [83, 71], [75, 70], [70], [81], [71], [102], [102], [102], [102], [102], [102], [102], [102], [102], [102], [102], [102], [102], [102], [102], [102], [102], [102], [102], [102], [102], [102], [102], [102], [102], [102], [102], [102], [102], [102], [102], [102], []]
letting durations = [[0], [4, 6, 8], [7, 8, 9], [5, 7, 9], [1, 4, 10], [3, 5, 6], [1, 2, 7], [3, 5, 10], [1, 2, 9], [3, 4, 7], [6, 7, 8], [4, 4, 10], [2, 6, 7], [5, 9, 10], [1, 2, 3], [1, 2, 4], [2, 3, 8], [1, 4, 7], [7, 8, 9], [1, 2, 7], [1, 4, 4], [3, 4, 5], [3, 5, 6], [6, 8, 8], [6, 7, 10], [3, 4, 10], [7, 9, 10], [1, 7, 10], [4, 8, 8], [4, 8, 9], [5, 7, 8], [1, 1, 2], [2, 7, 8], [4, 7, 8], [2, 4, 6], [2, 6, 8], [1, 2, 3], [1, 1, 3], [2, 3, 7], [2, 3, 5], [4, 6, 9], [9, 10, 10], [3, 8, 10], [1, 4, 8], [4, 8, 10], [1, 1, 6], [2, 4, 10], [2, 5, 6], [1, 2, 8], [1, 2, 3], [1, 5, 9], [3, 6, 8], [7, 8, 9], [3, 6, 8], [3, 9, 10], [7, 9, 10], [4, 9, 10], [4, 6, 8], [9, 10, 10], [1, 3, 8], [1, 4, 6], [2, 3, 4], [1, 9, 10], [1, 3, 3], [2, 4, 5], [1, 7, 7], [2, 7, 8], [2, 5, 10], [5, 6, 9], [2, 3, 9], [5, 6, 10], [1, 2, 9], [1, 1, 2], [7, 8, 10], [3, 4, 8], [1, 1, 6], [2, 3, 6], [1, 2, 9], [1, 5, 10], [3, 8, 9], [1, 2, 5], [7, 7, 8], [1, 8, 9], [2, 2, 10], [8, 8, 9], [2, 8, 9], [1, 4, 7], [4, 6, 8], [1, 10, 10], [4, 5, 6], [4, 9, 10], [4, 6, 8], [3, 6, 8], [4, 6, 10], [5, 9, 10], [5, 7, 10], [2, 4, 5], [1, 3, 4], [3, 7, 9], [1, 5, 6], [4, 5, 10], [0]]
letting resourceUsage = [[[0, 0, 0, 0]], [[2, 1, 10, 0], [2, 1, 0, 5], [1, 1, 1, 0]], [[1, 5, 0, 5], [1, 5, 3, 0], [1, 5, 1, 0]], [[5, 4, 9, 0], [5, 3, 0, 4], [5, 3, 9, 0]], [[5, 3, 8, 0], [3, 2, 8, 0], [2, 2, 5, 0]], [[3, 3, 0, 7], [1, 3, 6, 0], [1, 3, 0, 3]], [[5, 4, 0, 8], [4, 3, 0, 5], [4, 3, 3, 0]], [[1, 5, 0, 10], [1, 4, 0, 9], [1, 3, 0, 9]], [[4, 5, 5, 0], [4, 5, 4, 0], [4, 5, 3, 0]], [[5, 2, 0, 9], [3, 2, 3, 0], [1, 1, 0, 4]], [[2, 3, 6, 0], [1, 2, 5, 0], [1, 2, 3, 0]], [[5, 5, 0, 8], [3, 5, 4, 0], [3, 5, 2, 0]], [[2, 5, 0, 4], [2, 4, 0, 4], [2, 3, 7, 0]], [[4, 2, 0, 7], [4, 2, 7, 0], [4, 2, 4, 0]], [[5, 2, 0, 7], [4, 1, 0, 5], [4, 1, 0, 3]], [[5, 2, 0, 8], [4, 2, 3, 0], [2, 1, 3, 0]], [[3, 3, 0, 3], [2, 2, 0, 3], [2, 2, 4, 0]], [[4, 1, 2, 0], [3, 1, 2, 0], [3, 1, 0, 8]], [[1, 2, 6, 0], [1, 2, 5, 0], [1, 2, 3, 0]], [[4, 5, 10, 0], [3, 4, 0, 6], [3, 4, 0, 3]], [[3, 5, 6, 0], [2, 2, 4, 0], [2, 1, 0, 2]], [[4, 3, 0, 10], [4, 2, 2, 0], [4, 2, 0, 8]], [[4, 5, 5, 0], [4, 3, 4, 0], [2, 2, 0, 1]], [[4, 2, 6, 0], [3, 2, 4, 0], [1, 2, 0, 5]], [[5, 3, 7, 0], [5, 3, 0, 4], [5, 3, 0, 3]], [[4, 5, 7, 0], [4, 3, 6, 0], [4, 3, 5, 0]], [[1, 5, 6, 0], [1, 5, 0, 2], [1, 5, 0, 1]], [[4, 3, 8, 0], [4, 2, 0, 5], [4, 2, 3, 0]], [[4, 3, 8, 0], [3, 2, 0, 3], [3, 2, 2, 0]], [[4, 3, 4, 0], [4, 3, 0, 3], [4, 3, 0, 2]], [[4, 4, 0, 9], [3, 3, 0, 9], [2, 2, 0, 8]], [[5, 4, 8, 0], [2, 4, 0, 5], [1, 2, 0, 3]], [[2, 1, 0, 8], [1, 1, 0, 6], [1, 1, 0, 3]], [[3, 2, 0, 4], [2, 1, 6, 0], [1, 1, 0, 2]], [[3, 2, 10, 0], [2, 1, 9, 0], [2, 1, 8, 0]], [[3, 3, 0, 7], [2, 2, 0, 6], [2, 1, 0, 5]], [[5, 2, 0, 5], [4, 1, 7, 0], [4, 1, 3, 0]], [[4, 3, 3, 0], [4, 2, 0, 4], [4, 2, 1, 0]], [[3, 5, 0, 2], [1, 5, 0, 2], [1, 5, 0, 1]], [[4, 4, 0, 9], [3, 2, 0, 4], [2, 1, 3, 0]], [[2, 5, 7, 0], [2, 4, 3, 0], [1, 4, 2, 0]], [[4, 5, 6, 0], [3, 3, 4, 0], [2, 3, 0, 1]], [[5, 2, 0, 7], [3, 1, 0, 3], [2, 1, 0, 3]], [[3, 2, 3, 0], [3, 1, 3, 0], [3, 1, 0, 6]], [[2, 5, 0, 7], [2, 3, 9, 0], [2, 2, 0, 4]], [[4, 1, 0, 9], [3, 1, 2, 0], [3, 1, 1, 0]], [[3, 5, 6, 0], [2, 2, 5, 0], [1, 2, 0, 7]], [[4, 1, 5, 0], [2, 1, 3, 0], [1, 1, 2, 0]], [[2, 4, 5, 0], [2, 3, 0, 4], [2, 3, 0, 2]], [[4, 1, 0, 6], [4, 1, 9, 0], [4, 1, 0, 5]], [[3, 3, 2, 0], [3, 2, 1, 0], [3, 2, 0, 4]], [[4, 4, 6, 0], [3, 4, 5, 0], [1, 4, 4, 0]], [[3, 5, 9, 0], [3, 3, 7, 0], [3, 2, 0, 2]], [[3, 4, 6, 0], [2, 2, 0, 3], [2, 2, 2, 0]], [[5, 3, 10, 0], [4, 3, 7, 0], [3, 3, 0, 2]], [[3, 3, 7, 0], [3, 3, 5, 0], [2, 3, 5, 0]], [[3, 2, 0, 5], [2, 2, 0, 4], [1, 2, 2, 0]], [[4, 4, 7, 0], [4, 3, 6, 0], [4, 2, 3, 0]], [[3, 2, 0, 9], [2, 1, 7, 0], [2, 1, 0, 3]], [[4, 3, 9, 0], [4, 2, 6, 0], [4, 2, 4, 0]], [[1, 5, 6, 0], [1, 3, 5, 0], [1, 1, 0, 7]], [[5, 5, 0, 5], [4, 4, 0, 5], [2, 4, 0, 1]], [[2, 2, 0, 9], [2, 2, 2, 0], [2, 2, 0, 5]], [[4, 4, 0, 2], [2, 3, 7, 0], [2, 3, 0, 1]], [[3, 2, 0, 5], [3, 1, 0, 4], [3, 1, 0, 3]], [[5, 2, 0, 5], [2, 2, 3, 0], [2, 2, 0, 2]], [[4, 2, 0, 4], [3, 2, 0, 2], [2, 2, 0, 2]], [[1, 3, 0, 7], [1, 3, 3, 0], [1, 3, 0, 1]], [[4, 4, 6, 0], [2, 3, 6, 0], [2, 3, 5, 0]], [[4, 4, 0, 8], [3, 3, 0, 8], [1, 2, 0, 7]], [[5, 4, 0, 10], [2, 2, 1, 0], [2, 1, 0, 9]], [[5, 5, 0, 10], [5, 5, 0, 6], [5, 5, 0, 5]], [[2, 4, 0, 10], [1, 4, 5, 0], [1, 4, 2, 0]], [[3, 3, 0, 5], [2, 2, 0, 4], [1, 2, 0, 3]], [[3, 3, 5, 0], [1, 3, 3, 0], [1, 1, 3, 0]], [[3, 4, 7, 0], [3, 3, 0, 5], [3, 2, 0, 5]], [[3, 4, 0, 5], [2, 2, 5, 0], [2, 2, 0, 2]], [[4, 4, 0, 7], [4, 3, 0, 6], [4, 1, 2, 0]], [[2, 4, 0, 6], [2, 3, 0, 4], [2, 3, 7, 0]], [[5, 3, 3, 0], [4, 1, 0, 7], [3, 1, 1, 0]], [[3, 3, 0, 4], [3, 3, 0, 3], [3, 3, 0, 2]], [[3, 1, 8, 0], [3, 1, 0, 6], [3, 1, 0, 1]], [[3, 2, 0, 10], [2, 1, 0, 7], [1, 1, 0, 4]], [[4, 4, 0, 8], [3, 3, 7, 0], [3, 3, 0, 5]], [[5, 3, 7, 0], [5, 2, 0, 3], [5, 2, 0, 2]], [[3, 3, 8, 0], [3, 2, 0, 5], [1, 2, 0, 5]], [[3, 3, 0, 10], [2, 3, 1, 0], [1, 3, 1, 0]], [[2, 4, 0, 7], [1, 2, 3, 0], [1, 2, 2, 0]], [[4, 2, 5, 0], [2, 2, 5, 0], [1, 1, 0, 5]], [[4, 1, 1, 0], [4, 1, 0, 3], [4, 1, 0, 2]], [[5, 3, 7, 0], [4, 2, 5, 0], [3, 1, 3, 0]], [[1, 4, 0, 4], [1, 2, 0, 4], [1, 2, 0, 1]], [[5, 2, 5, 0], [2, 2, 0, 7], [1, 2, 3, 0]], [[3, 3, 4, 0], [3, 2, 3, 0], [3, 2, 2, 0]], [[1, 3, 5, 0], [1, 3, 0, 4], [1, 3, 1, 0]], [[3, 3, 0, 4], [2, 3, 0, 4], [2, 2, 8, 0]], [[1, 1, 0, 9], [1, 1, 8, 0], [1, 1, 0, 4]], [[4, 4, 0, 10], [2, 4, 0, 8], [2, 4, 1, 0]], [[3, 1, 0, 7], [3, 1, 6, 0], [3, 1, 0, 5]], [[4, 5, 0, 6], [2, 4, 10, 0], [2, 3, 0, 4]], [[3, 2, 0, 5], [1, 2, 0, 2], [1, 2, 0, 1]], [[0, 0, 0, 0]]]
